outputs/uuf50-0102/46_n28_n41_15.res
%RESA32 50 218

219 -44 12 108 4 9 2 11 -10 4
220 10 87 219 4 -15 2 11 9 4
221 -2 165 220 4 -8 -15 11 9 4
222 -11 208 221 4 -8 -15 9 -25 4
223 25 86 222 5 35 -8 9 -15 -40 5
224 -9 38 223 6 35 -29 -8 -48 -15 -40 6
225 48 42 224 7 35 -29 -8 41 -22 -15 -40 7
226 -35 78 225 7 -29 38 -8 41 -22 -15 -40 7
227 22 112 226 8 33 -29 38 -8 41 -15 -40 -34 8
228 -33 40 227 7 -29 38 41 -15 -40 -8 -34 7
229 31 92 185 4 9 26 27 -29 4
230 -26 113 229 4 27 9 -46 -29 4
231 -27 212 230 5 -29 8 9 -46 -40 5
232 -9 101 231 4 -40 8 -46 -29 4
233 -8 228 232 7 -29 38 41 -15 -46 -40 -34 7
234 34 214 233 7 -29 38 41 47 -15 -46 -40 7
235 -47 171 234 6 -29 38 41 -15 -46 -40 6
236 16 161 94 4 40 19 4 -43 4
237 43 73 236 5 4 6 40 19 -10 5
238 -4 46 237 5 -32 6 40 19 -10 5
239 -6 84 238 6 -32 40 42 14 19 -10 6
240 -19 14 239 6 -32 40 42 14 -10 24 6
241 -14 163 240 6 -32 40 42 -10 24 -39 6
242 49 211 107 3 24 -27 -18 3
243 18 102 242 4 24 28 -27 -42 4
244 42 241 243 7 -32 -27 40 -10 24 -39 28 7
245 10 145 244 6 -32 -27 40 24 -39 28 6
246 32 49 245 6 -27 40 24 -39 28 31 6
247 39 57 246 6 -27 8 40 24 28 31 6
248 27 92 247 6 -29 8 40 24 28 31 6
249 -31 29 248 5 -29 8 40 24 28 5
250 3 99 201 4 16 -36 28 38 4
251 -16 172 250 4 28 -36 -11 38 4
252 36 124 251 5 38 40 -48 -11 28 5
253 48 42 252 6 38 40 41 -22 -11 28 6
254 11 87 253 7 38 40 41 10 -22 -15 28 7
255 -10 2 254 8 33 38 40 41 42 -22 -15 28 8
256 22 112 255 8 33 38 40 41 42 -15 28 -34 8
257 -33 40 256 8 38 40 41 42 -15 -8 28 -34 8
258 -49 196 7 3 40 -47 18 3
259 47 214 258 4 40 -15 18 34 4
260 -34 257 259 8 38 40 41 42 -15 18 -8 28 8
261 -42 102 260 7 38 40 41 -15 18 -8 28 7
262 -48 124 71 4 40 -15 36 -9 4
263 9 185 262 5 -31 36 40 -15 26 5
264 31 92 263 6 -29 36 40 -15 26 27 6
265 -26 113 264 6 -29 36 40 -15 -46 27 6
266 -36 34 265 6 -29 40 27 -15 -46 -37 6
267 -27 107 266 7 -29 40 -18 -49 -15 -46 -37 7
268 49 211 267 7 -29 40 -18 -15 -46 24 -37 7
269 37 82 268 7 -29 38 40 -18 -15 -46 24 7
270 18 261 269 9 -29 38 40 41 -15 -46 -8 24 28 9
271 8 249 270 8 -29 38 40 41 -15 -46 24 28 8
272 -40 235 271 7 -29 38 41 -15 -46 24 28 7
273 29 36 272 6 38 41 -15 -46 24 28 6
274 48 42 124 4 40 41 -22 36 4
275 -40 235 274 7 -29 36 38 41 -22 -15 -46 7
276 29 206 275 6 36 38 41 -22 -15 -46 6
277 22 199 276 7 36 38 8 41 44 -15 -46 7
278 -36 28 277 7 38 8 41 44 -15 -46 30 7
279 -8 165 278 8 38 9 41 44 -15 -46 30 -2 8
280 2 108 279 8 38 9 41 44 -15 -46 -10 30 8
281 -30 69 280 7 38 9 41 44 -15 -46 -10 7
282 -44 12 281 7 38 9 41 11 -15 -46 -10 7
283 -9 133 282 6 38 41 11 -15 -46 -10 6
284 10 87 283 5 38 41 11 -15 -46 5
285 -11 166 284 6 38 -24 41 -15 -46 20 6
286 -20 210 285 6 38 -24 41 -15 -46 23 6
287 -23 18 286 5 38 -24 41 -15 -46 5
288 24 273 287 5 38 41 -15 -46 28 5
289 30 28 69 4 -15 -36 44 41 4
290 -44 12 289 5 9 41 11 -15 -36 5
291 36 136 290 5 9 41 11 12 -15 5
292 -9 133 291 5 41 11 12 -15 -46 5
293 -11 166 292 6 -24 41 12 -15 -46 20 6
294 -12 19 293 7 -24 41 -15 -46 -13 20 -38 7
295 -20 210 294 7 -24 41 -15 -46 -13 23 -38 7
296 -23 18 295 6 -24 41 -15 -46 -13 -38 6
297 13 190 296 5 -24 41 -15 -46 -38 5
298 36 136 34 4 9 27 12 -37 4
299 -12 88 298 4 27 -15 -37 9 4
300 37 135 299 5 -25 9 -15 -38 27 5
301 25 154 300 5 9 -49 -15 -38 27 5
302 -27 107 301 5 9 -18 -49 -15 -38 5
303 49 211 302 5 9 -18 -15 24 -38 5
304 -13 19 93 3 16 -38 -12 3
305 -16 94 304 4 -38 19 -12 -43 4
306 -19 14 305 5 42 -12 -43 24 -38 5
307 12 136 306 6 36 9 42 -43 24 -38 6
308 -42 102 307 7 36 9 18 -43 24 -38 28 7
309 -36 16 308 7 9 18 -43 -40 24 -38 28 7
310 -18 303 309 7 9 -15 -43 -40 24 -38 28 7
311 43 63 310 7 9 -15 22 -40 24 -38 28 7
312 -22 42 311 8 9 41 48 -15 -40 24 -38 28 8
313 -9 71 312 7 41 48 -15 -40 24 -38 28 7
314 -48 150 313 6 41 -15 -40 24 -38 28 6
