temp-work/46_n28_n41_15.proof
-29 38 -8 41 -15 -40 -34 0
-29 38 41 -15 -46 -40 0
-32 40 42 -10 24 -39 0
-29 8 40 24 28 0
38 40 41 42 -15 -8 28 -34 0
38 40 41 -15 18 -8 28 0
38 41 -15 -46 24 28 0
38 41 -15 -46 28 0
-24 41 -15 -46 -38 0
9 -18 -15 24 -38 0
41 -15 -40 24 -38 28 0
0
